0 20
1 20
2 20
3 20
4 20
5 20
6 20
7 20
8 20
9 20
10 20
0 40
1 40
2 40
3 40
4 40
5 40
6 40
7 40
8 40
9 40
10 40
0 60
1 60
2 60
3 60
4 60
5 60
6 60
7 60
8 60
9 60
10 60
0 80
1 80
2 80
3 80
4 80
5 80
6 80
7 80
8 80
9 80
10 80
0 100
1 100
2 100
3 100
4 100
5 100
6 100
7 100
8 100
9 100
10 100
0 120
1 120
2 120
3 120
4 120
5 120
6 120
7 120
8 120
9 120
10 120
0 140
1 140
2 140
3 140
4 140
5 140
6 140
7 140
8 140
9 140
10 140
0 160
1 160
2 160
3 160
4 160
5 160
6 160
7 160
8 160
9 160
10 160
0 180
1 180
2 180
3 180
4 180
5 180
6 180
7 180
8 180
9 180
10 180
0 200
1 200
2 200
3 200
4 200
5 200
6 200
7 200
8 200
9 200
10 200
0 220
1 220
2 220
3 220
4 220
5 220
6 220
7 220
8 220
9 220
10 220
0 240
1 240
2 240
3 240
4 240
5 240
6 240
7 240
8 240
